nNurses = 64;
nHours = 27;
minHours = 7;
maxHours = 14;
maxConsec = 14;
maxPresence = 9;
demand = [31, 26, 22, 18, 20, 18, 22, 21, 16, 20, 16, 21, 20, 19, 14, 17, 19, 16, 19, 22, 21, 17, 21, 24, 19, 16, 17];
